% Auto-generated by scripts/generate_dzn.py
% problem_type   = polyominoes
% instance       = polyominoes_75
% source_json    = instances_json/0_low_blowup/polyominoes_75.json
% blowup         = 0.6363636363636364
% representation = NFA

mode = 1;

size = 4;
tiles = 4;
n_expressions = 4;
Q = 63;
S = 5;
q0 = [1, 1, 1, 1];
F = [{13}, {10}, {18}, {8}];
d_dfa = array3d(1..4, 1..63, 1..5, [
  % k = 1
    0, 0, 0, 0, 0,
    0, 0, 0, 0, 0,
    0, 0, 0, 0, 0,
    0, 0, 0, 0, 0,
    0, 0, 0, 0, 0,
    0, 0, 0, 0, 0,
    0, 0, 0, 0, 0,
    0, 0, 0, 0, 0,
    0, 0, 0, 0, 0,
    0, 0, 0, 0, 0,
    0, 0, 0, 0, 0,
    0, 0, 0, 0, 0,
    0, 0, 0, 0, 0,
    0, 0, 0, 0, 0,
    0, 0, 0, 0, 0,
    0, 0, 0, 0, 0,
    0, 0, 0, 0, 0,
    0, 0, 0, 0, 0,
    0, 0, 0, 0, 0,
    0, 0, 0, 0, 0,
    0, 0, 0, 0, 0,
    0, 0, 0, 0, 0,
    0, 0, 0, 0, 0,
    0, 0, 0, 0, 0,
    0, 0, 0, 0, 0,
    0, 0, 0, 0, 0,
    0, 0, 0, 0, 0,
    0, 0, 0, 0, 0,
    0, 0, 0, 0, 0,
    0, 0, 0, 0, 0,
    0, 0, 0, 0, 0,
    0, 0, 0, 0, 0,
    0, 0, 0, 0, 0,
    0, 0, 0, 0, 0,
    0, 0, 0, 0, 0,
    0, 0, 0, 0, 0,
    0, 0, 0, 0, 0,
    0, 0, 0, 0, 0,
    0, 0, 0, 0, 0,
    0, 0, 0, 0, 0,
    0, 0, 0, 0, 0,
    0, 0, 0, 0, 0,
    0, 0, 0, 0, 0,
    0, 0, 0, 0, 0,
    0, 0, 0, 0, 0,
    0, 0, 0, 0, 0,
    0, 0, 0, 0, 0,
    0, 0, 0, 0, 0,
    0, 0, 0, 0, 0,
    0, 0, 0, 0, 0,
    0, 0, 0, 0, 0,
    0, 0, 0, 0, 0,
    0, 0, 0, 0, 0,
    0, 0, 0, 0, 0,
    0, 0, 0, 0, 0,
    0, 0, 0, 0, 0,
    0, 0, 0, 0, 0,
    0, 0, 0, 0, 0,
    0, 0, 0, 0, 0,
    0, 0, 0, 0, 0,
    0, 0, 0, 0, 0,
    0, 0, 0, 0, 0,
    0, 0, 0, 0, 0,

  % k = 2
    0, 0, 0, 0, 0,
    0, 0, 0, 0, 0,
    0, 0, 0, 0, 0,
    0, 0, 0, 0, 0,
    0, 0, 0, 0, 0,
    0, 0, 0, 0, 0,
    0, 0, 0, 0, 0,
    0, 0, 0, 0, 0,
    0, 0, 0, 0, 0,
    0, 0, 0, 0, 0,
    0, 0, 0, 0, 0,
    0, 0, 0, 0, 0,
    0, 0, 0, 0, 0,
    0, 0, 0, 0, 0,
    0, 0, 0, 0, 0,
    0, 0, 0, 0, 0,
    0, 0, 0, 0, 0,
    0, 0, 0, 0, 0,
    0, 0, 0, 0, 0,
    0, 0, 0, 0, 0,
    0, 0, 0, 0, 0,
    0, 0, 0, 0, 0,
    0, 0, 0, 0, 0,
    0, 0, 0, 0, 0,
    0, 0, 0, 0, 0,
    0, 0, 0, 0, 0,
    0, 0, 0, 0, 0,
    0, 0, 0, 0, 0,
    0, 0, 0, 0, 0,
    0, 0, 0, 0, 0,
    0, 0, 0, 0, 0,
    0, 0, 0, 0, 0,
    0, 0, 0, 0, 0,
    0, 0, 0, 0, 0,
    0, 0, 0, 0, 0,
    0, 0, 0, 0, 0,
    0, 0, 0, 0, 0,
    0, 0, 0, 0, 0,
    0, 0, 0, 0, 0,
    0, 0, 0, 0, 0,
    0, 0, 0, 0, 0,
    0, 0, 0, 0, 0,
    0, 0, 0, 0, 0,
    0, 0, 0, 0, 0,
    0, 0, 0, 0, 0,
    0, 0, 0, 0, 0,
    0, 0, 0, 0, 0,
    0, 0, 0, 0, 0,
    0, 0, 0, 0, 0,
    0, 0, 0, 0, 0,
    0, 0, 0, 0, 0,
    0, 0, 0, 0, 0,
    0, 0, 0, 0, 0,
    0, 0, 0, 0, 0,
    0, 0, 0, 0, 0,
    0, 0, 0, 0, 0,
    0, 0, 0, 0, 0,
    0, 0, 0, 0, 0,
    0, 0, 0, 0, 0,
    0, 0, 0, 0, 0,
    0, 0, 0, 0, 0,
    0, 0, 0, 0, 0,
    0, 0, 0, 0, 0,

  % k = 3
    0, 0, 0, 0, 0,
    0, 0, 0, 0, 0,
    0, 0, 0, 0, 0,
    0, 0, 0, 0, 0,
    0, 0, 0, 0, 0,
    0, 0, 0, 0, 0,
    0, 0, 0, 0, 0,
    0, 0, 0, 0, 0,
    0, 0, 0, 0, 0,
    0, 0, 0, 0, 0,
    0, 0, 0, 0, 0,
    0, 0, 0, 0, 0,
    0, 0, 0, 0, 0,
    0, 0, 0, 0, 0,
    0, 0, 0, 0, 0,
    0, 0, 0, 0, 0,
    0, 0, 0, 0, 0,
    0, 0, 0, 0, 0,
    0, 0, 0, 0, 0,
    0, 0, 0, 0, 0,
    0, 0, 0, 0, 0,
    0, 0, 0, 0, 0,
    0, 0, 0, 0, 0,
    0, 0, 0, 0, 0,
    0, 0, 0, 0, 0,
    0, 0, 0, 0, 0,
    0, 0, 0, 0, 0,
    0, 0, 0, 0, 0,
    0, 0, 0, 0, 0,
    0, 0, 0, 0, 0,
    0, 0, 0, 0, 0,
    0, 0, 0, 0, 0,
    0, 0, 0, 0, 0,
    0, 0, 0, 0, 0,
    0, 0, 0, 0, 0,
    0, 0, 0, 0, 0,
    0, 0, 0, 0, 0,
    0, 0, 0, 0, 0,
    0, 0, 0, 0, 0,
    0, 0, 0, 0, 0,
    0, 0, 0, 0, 0,
    0, 0, 0, 0, 0,
    0, 0, 0, 0, 0,
    0, 0, 0, 0, 0,
    0, 0, 0, 0, 0,
    0, 0, 0, 0, 0,
    0, 0, 0, 0, 0,
    0, 0, 0, 0, 0,
    0, 0, 0, 0, 0,
    0, 0, 0, 0, 0,
    0, 0, 0, 0, 0,
    0, 0, 0, 0, 0,
    0, 0, 0, 0, 0,
    0, 0, 0, 0, 0,
    0, 0, 0, 0, 0,
    0, 0, 0, 0, 0,
    0, 0, 0, 0, 0,
    0, 0, 0, 0, 0,
    0, 0, 0, 0, 0,
    0, 0, 0, 0, 0,
    0, 0, 0, 0, 0,
    0, 0, 0, 0, 0,
    0, 0, 0, 0, 0,

  % k = 4
    0, 0, 0, 0, 0,
    0, 0, 0, 0, 0,
    0, 0, 0, 0, 0,
    0, 0, 0, 0, 0,
    0, 0, 0, 0, 0,
    0, 0, 0, 0, 0,
    0, 0, 0, 0, 0,
    0, 0, 0, 0, 0,
    0, 0, 0, 0, 0,
    0, 0, 0, 0, 0,
    0, 0, 0, 0, 0,
    0, 0, 0, 0, 0,
    0, 0, 0, 0, 0,
    0, 0, 0, 0, 0,
    0, 0, 0, 0, 0,
    0, 0, 0, 0, 0,
    0, 0, 0, 0, 0,
    0, 0, 0, 0, 0,
    0, 0, 0, 0, 0,
    0, 0, 0, 0, 0,
    0, 0, 0, 0, 0,
    0, 0, 0, 0, 0,
    0, 0, 0, 0, 0,
    0, 0, 0, 0, 0,
    0, 0, 0, 0, 0,
    0, 0, 0, 0, 0,
    0, 0, 0, 0, 0,
    0, 0, 0, 0, 0,
    0, 0, 0, 0, 0,
    0, 0, 0, 0, 0,
    0, 0, 0, 0, 0,
    0, 0, 0, 0, 0,
    0, 0, 0, 0, 0,
    0, 0, 0, 0, 0,
    0, 0, 0, 0, 0,
    0, 0, 0, 0, 0,
    0, 0, 0, 0, 0,
    0, 0, 0, 0, 0,
    0, 0, 0, 0, 0,
    0, 0, 0, 0, 0,
    0, 0, 0, 0, 0,
    0, 0, 0, 0, 0,
    0, 0, 0, 0, 0,
    0, 0, 0, 0, 0,
    0, 0, 0, 0, 0,
    0, 0, 0, 0, 0,
    0, 0, 0, 0, 0,
    0, 0, 0, 0, 0,
    0, 0, 0, 0, 0,
    0, 0, 0, 0, 0,
    0, 0, 0, 0, 0,
    0, 0, 0, 0, 0,
    0, 0, 0, 0, 0,
    0, 0, 0, 0, 0,
    0, 0, 0, 0, 0,
    0, 0, 0, 0, 0,
    0, 0, 0, 0, 0,
    0, 0, 0, 0, 0,
    0, 0, 0, 0, 0,
    0, 0, 0, 0, 0,
    0, 0, 0, 0, 0,
    0, 0, 0, 0, 0,
    0, 0, 0, 0, 0
]);
d_nfa = array3d(1..4, 1..63, 1..5, [
  % k = 1
    {3, 15}, {2, 14}, {2, 14}, {2, 14}, {2, 14},
    {3}, {2}, {2}, {2}, {2},
    {}, {4}, {4}, {4}, {4},
    {}, {5}, {5}, {5}, {5},
    {}, {6}, {6}, {6}, {6},
    {}, {7}, {7}, {7}, {7},
    {8}, {}, {}, {}, {},
    {}, {9}, {9}, {9}, {9},
    {}, {10}, {10}, {10}, {10},
    {}, {11}, {11}, {11}, {11},
    {}, {12}, {12}, {12}, {12},
    {13}, {}, {}, {}, {},
    {}, {13}, {13}, {13}, {13},
    {15}, {14}, {14}, {14}, {14},
    {12}, {}, {}, {}, {},
    {}, {}, {}, {}, {},
    {}, {}, {}, {}, {},
    {}, {}, {}, {}, {},
    {}, {}, {}, {}, {},
    {}, {}, {}, {}, {},
    {}, {}, {}, {}, {},
    {}, {}, {}, {}, {},
    {}, {}, {}, {}, {},
    {}, {}, {}, {}, {},
    {}, {}, {}, {}, {},
    {}, {}, {}, {}, {},
    {}, {}, {}, {}, {},
    {}, {}, {}, {}, {},
    {}, {}, {}, {}, {},
    {}, {}, {}, {}, {},
    {}, {}, {}, {}, {},
    {}, {}, {}, {}, {},
    {}, {}, {}, {}, {},
    {}, {}, {}, {}, {},
    {}, {}, {}, {}, {},
    {}, {}, {}, {}, {},
    {}, {}, {}, {}, {},
    {}, {}, {}, {}, {},
    {}, {}, {}, {}, {},
    {}, {}, {}, {}, {},
    {}, {}, {}, {}, {},
    {}, {}, {}, {}, {},
    {}, {}, {}, {}, {},
    {}, {}, {}, {}, {},
    {}, {}, {}, {}, {},
    {}, {}, {}, {}, {},
    {}, {}, {}, {}, {},
    {}, {}, {}, {}, {},
    {}, {}, {}, {}, {},
    {}, {}, {}, {}, {},
    {}, {}, {}, {}, {},
    {}, {}, {}, {}, {},
    {}, {}, {}, {}, {},
    {}, {}, {}, {}, {},
    {}, {}, {}, {}, {},
    {}, {}, {}, {}, {},
    {}, {}, {}, {}, {},
    {}, {}, {}, {}, {},
    {}, {}, {}, {}, {},
    {}, {}, {}, {}, {},
    {}, {}, {}, {}, {},
    {}, {}, {}, {}, {},
    {}, {}, {}, {}, {},

  % k = 2
    {2, 11, 15, 21, 31, 34, 36, 38}, {3, 12, 16, 22, 32, 35, 37, 39}, {2, 11, 15, 21, 31, 34, 36, 38}, {2, 11, 15, 21, 31, 34, 36, 38}, {2, 11, 15, 21, 31, 34, 36, 38},
    {2}, {3}, {2}, {2}, {2},
    {}, {4}, {}, {}, {},
    {}, {5}, {}, {}, {},
    {6}, {}, {6}, {6}, {6},
    {7}, {}, {7}, {7}, {7},
    {8}, {}, {8}, {8}, {8},
    {}, {9}, {}, {}, {},
    {}, {10}, {}, {}, {},
    {10}, {}, {10}, {10}, {10},
    {11}, {12}, {11}, {11}, {11},
    {13}, {}, {13}, {13}, {13},
    {14}, {}, {14}, {14}, {14},
    {3}, {}, {3}, {3}, {3},
    {15}, {16}, {15}, {15}, {15},
    {}, {17}, {}, {}, {},
    {18}, {}, {18}, {18}, {18},
    {19}, {}, {19}, {19}, {19},
    {20}, {}, {20}, {20}, {20},
    {}, {8}, {}, {}, {},
    {21}, {22}, {21}, {21}, {21},
    {}, {23}, {}, {}, {},
    {24}, {}, {24}, {24}, {24},
    {25}, {}, {25}, {25}, {25},
    {26}, {}, {26}, {26}, {26},
    {}, {27}, {}, {}, {},
    {}, {28}, {}, {}, {},
    {29}, {}, {29}, {29}, {29},
    {30}, {}, {30}, {30}, {30},
    {9}, {}, {9}, {9}, {9},
    {31}, {32}, {31}, {31}, {31},
    {}, {33}, {}, {}, {},
    {}, {6}, {}, {}, {},
    {34}, {35}, {34}, {34}, {34},
    {12}, {}, {12}, {12}, {12},
    {36}, {37}, {36}, {36}, {36},
    {}, {18}, {}, {}, {},
    {38}, {39}, {38}, {38}, {38},
    {}, {40}, {}, {}, {},
    {41}, {}, {41}, {41}, {41},
    {42}, {}, {42}, {42}, {42},
    {43}, {}, {43}, {43}, {43},
    {}, {44}, {}, {}, {},
    {}, {45}, {}, {}, {},
    {28}, {}, {28}, {28}, {28},
    {}, {}, {}, {}, {},
    {}, {}, {}, {}, {},
    {}, {}, {}, {}, {},
    {}, {}, {}, {}, {},
    {}, {}, {}, {}, {},
    {}, {}, {}, {}, {},
    {}, {}, {}, {}, {},
    {}, {}, {}, {}, {},
    {}, {}, {}, {}, {},
    {}, {}, {}, {}, {},
    {}, {}, {}, {}, {},
    {}, {}, {}, {}, {},
    {}, {}, {}, {}, {},
    {}, {}, {}, {}, {},
    {}, {}, {}, {}, {},
    {}, {}, {}, {}, {},
    {}, {}, {}, {}, {},
    {}, {}, {}, {}, {},

  % k = 3
    {2, 19, 26, 41, 43, 50, 52, 60}, {2, 19, 26, 41, 43, 50, 52, 60}, {3, 20, 27, 42, 44, 51, 53, 61}, {2, 19, 26, 41, 43, 50, 52, 60}, {2, 19, 26, 41, 43, 50, 52, 60},
    {2}, {2}, {3}, {2}, {2},
    {4}, {4}, {}, {4}, {4},
    {5}, {5}, {}, {5}, {5},
    {6}, {6}, {}, {6}, {6},
    {7}, {7}, {}, {7}, {7},
    {}, {}, {8}, {}, {},
    {9}, {9}, {}, {9}, {9},
    {10}, {10}, {}, {10}, {10},
    {11}, {11}, {}, {11}, {11},
    {}, {}, {12}, {}, {},
    {}, {}, {13}, {}, {},
    {14}, {14}, {}, {14}, {14},
    {15}, {15}, {}, {15}, {15},
    {16}, {16}, {}, {16}, {16},
    {}, {}, {17}, {}, {},
    {}, {}, {18}, {}, {},
    {18}, {18}, {}, {18}, {18},
    {19}, {19}, {20}, {19}, {19},
    {}, {}, {21}, {}, {},
    {22}, {22}, {}, {22}, {22},
    {23}, {23}, {}, {23}, {23},
    {24}, {24}, {}, {24}, {24},
    {}, {}, {25}, {}, {},
    {}, {}, {16}, {}, {},
    {26}, {26}, {27}, {26}, {26},
    {}, {}, {28}, {}, {},
    {29}, {29}, {}, {29}, {29},
    {30}, {30}, {}, {30}, {30},
    {31}, {31}, {}, {31}, {31},
    {}, {}, {32}, {}, {},
    {}, {}, {33}, {}, {},
    {34}, {34}, {}, {34}, {34},
    {35}, {35}, {}, {35}, {35},
    {36}, {36}, {}, {36}, {36},
    {}, {}, {37}, {}, {},
    {38}, {38}, {}, {38}, {38},
    {39}, {39}, {}, {39}, {39},
    {40}, {40}, {}, {40}, {40},
    {17}, {17}, {}, {17}, {17},
    {41}, {41}, {42}, {41}, {41},
    {}, {}, {11}, {}, {},
    {43}, {43}, {44}, {43}, {43},
    {45}, {45}, {}, {45}, {45},
    {46}, {46}, {}, {46}, {46},
    {47}, {47}, {}, {47}, {47},
    {48}, {48}, {}, {48}, {48},
    {}, {}, {49}, {}, {},
    {8}, {8}, {}, {8}, {8},
    {50}, {50}, {51}, {50}, {50},
    {}, {}, {23}, {}, {},
    {52}, {52}, {53}, {52}, {52},
    {}, {}, {54}, {}, {},
    {55}, {55}, {}, {55}, {55},
    {56}, {56}, {}, {56}, {56},
    {57}, {57}, {}, {57}, {57},
    {}, {}, {58}, {}, {},
    {}, {}, {59}, {}, {},
    {33}, {33}, {}, {33}, {33},
    {60}, {60}, {61}, {60}, {60},
    {}, {}, {62}, {}, {},
    {}, {}, {63}, {}, {},
    {}, {}, {15}, {}, {},

  % k = 4
    {2, 9}, {2, 9}, {2, 9}, {3, 7}, {2, 9},
    {2}, {2}, {2}, {3}, {2},
    {4}, {4}, {4}, {}, {4},
    {5}, {5}, {5}, {}, {5},
    {6}, {6}, {6}, {}, {6},
    {7}, {7}, {7}, {}, {7},
    {}, {}, {}, {8}, {},
    {8}, {8}, {8}, {}, {8},
    {9}, {9}, {9}, {7}, {9},
    {}, {}, {}, {}, {},
    {}, {}, {}, {}, {},
    {}, {}, {}, {}, {},
    {}, {}, {}, {}, {},
    {}, {}, {}, {}, {},
    {}, {}, {}, {}, {},
    {}, {}, {}, {}, {},
    {}, {}, {}, {}, {},
    {}, {}, {}, {}, {},
    {}, {}, {}, {}, {},
    {}, {}, {}, {}, {},
    {}, {}, {}, {}, {},
    {}, {}, {}, {}, {},
    {}, {}, {}, {}, {},
    {}, {}, {}, {}, {},
    {}, {}, {}, {}, {},
    {}, {}, {}, {}, {},
    {}, {}, {}, {}, {},
    {}, {}, {}, {}, {},
    {}, {}, {}, {}, {},
    {}, {}, {}, {}, {},
    {}, {}, {}, {}, {},
    {}, {}, {}, {}, {},
    {}, {}, {}, {}, {},
    {}, {}, {}, {}, {},
    {}, {}, {}, {}, {},
    {}, {}, {}, {}, {},
    {}, {}, {}, {}, {},
    {}, {}, {}, {}, {},
    {}, {}, {}, {}, {},
    {}, {}, {}, {}, {},
    {}, {}, {}, {}, {},
    {}, {}, {}, {}, {},
    {}, {}, {}, {}, {},
    {}, {}, {}, {}, {},
    {}, {}, {}, {}, {},
    {}, {}, {}, {}, {},
    {}, {}, {}, {}, {},
    {}, {}, {}, {}, {},
    {}, {}, {}, {}, {},
    {}, {}, {}, {}, {},
    {}, {}, {}, {}, {},
    {}, {}, {}, {}, {},
    {}, {}, {}, {}, {},
    {}, {}, {}, {}, {},
    {}, {}, {}, {}, {},
    {}, {}, {}, {}, {},
    {}, {}, {}, {}, {},
    {}, {}, {}, {}, {},
    {}, {}, {}, {}, {},
    {}, {}, {}, {}, {},
    {}, {}, {}, {}, {},
    {}, {}, {}, {}, {},
    {}, {}, {}, {}, {}
]);
